cpu-bind=MASK - n2lcn0129, task  0  0 [742217]: mask |--------|--------||--------|--------||--------|--------||--------|--------||||----BBBB|--------||--------|--------||--------|--------||--------|--------|  set
started at Fri Mar 17 12:18:50 CET 2023
Timecheck 10015677.847896136
Set parameter TokenServer to value "license3.uni-paderborn.de"
Warning: Gurobi version mismatch between Python 10.0.1 and C library 10.0.0
Timecheck 10015677.852443464
Timecheck 10015677.852665432
Timecheck 10015677.852697931
Timecheck 10015677.85271936


####################################################################################################
Solve scenario sce_6_26_1 with free vessel operation using the arc flow model
Vessels can omit ports, Demands can be rejected
####################################################################################################
Data preprocessing, load /upb/departments/pc2/groups/hpc-prf-winf4/dwetzel/SILSRP/inst_final/sce_6_26_1
and create additional sets and parameters
	|- Read vessel information, number of vessels:	17
	|- Read node information, number of nodes:		848
	|- Read arc information
		|- Number of sailing arcs:			9152
		|- Number of transshipment arcs:	1583
	|- Read container information
		|- Number of demands:		4505
		|- Number of empties (+/-):	437/371
	|- Create additional sets and parameters

Data preprocessing took 	00:00:07.414
####################################################################################################
Create linear model
Set parameter Threads to value 4
	|- Create variables, took	00:00:18.123
	|- Create objective, took	00:00:10.461
	|- Create constraints, took	00:00:34.240
	|- Load heuristic start

Creating model took	00:01:03.136
####################################################################################################
Fix start solution

Set parameter TimeLimit to value 4.8871791533164680e+04
Gurobi Optimizer version 10.0.0 build v10.0.0rc2 (linux64)

CPU model: AMD EPYC 7763 64-Core Processor, instruction set [SSE2|AVX|AVX2]
Thread count: 128 physical cores, 128 logical processors, using up to 4 threads

Optimize a model with 423552 rows, 3734886 columns and 11881963 nonzeros
Model fingerprint: 0x20b00101
Variable types: 3573967 continuous, 160919 integer (160919 binary)
Coefficient statistics:
  Matrix range     [1e+00, 4e+05]
  Objective range  [1e+00, 1e+00]
  Bounds range     [1e+00, 5e+02]
  RHS range        [1e+00, 2e+08]
Found heuristic solution: objective 2.330229e+08
Presolve removed 330899 rows and 3475586 columns (presolve time = 5s) ...
Presolve removed 392080 rows and 3632627 columns (presolve time = 10s) ...
Presolve removed 394767 rows and 3641596 columns
Presolve time: 13.28s
Presolved: 28785 rows, 93290 columns, 244106 nonzeros
Found heuristic solution: objective 7.473872e+07
Variable types: 90265 continuous, 3025 integer (2991 binary)
Found heuristic solution: objective 7.473762e+07
Deterministic concurrent LP optimizer: primal and dual simplex
Showing first log only...


Root simplex log...

Iteration    Objective       Primal Inf.    Dual Inf.      Time
       0    2.1575334e+08   1.095654e+02   3.987712e+08     14s
Concurrent spin time: 0.00s

Solved with dual simplex

Root simplex log...

Iteration    Objective       Primal Inf.    Dual Inf.      Time
    8143    5.6433656e+07   0.000000e+00   0.000000e+00     14s

Root relaxation: objective 5.643366e+07, 8143 iterations, 0.40 seconds (0.31 work units)

    Nodes    |    Current Node    |     Objective Bounds      |     Work
 Expl Unexpl |  Obj  Depth IntInf | Incumbent    BestBd   Gap | It/Node Time

     0     0 5.6434e+07    0    2 7.4738e+07 5.6434e+07  24.5%     -   14s
H    0     0                    5.644581e+07 5.6434e+07  0.02%     -   14s

Cutting planes:
  Gomory: 1
  Flow cover: 1

Explored 1 nodes (8143 simplex iterations) in 15.64 seconds (10.02 work units)
Thread count was 4 (of 128 available processors)

Solution count 4: 5.64458e+07 7.47376e+07 7.47387e+07 2.33023e+08 

Optimal solution found (tolerance 1.00e-04)
Best objective 5.644580800000e+07, best bound 5.644061700000e+07, gap 0.0092%

Fixing start solution took	00:01:20.045
####################################################################################################
####################################################################################################
Solve optimization model

Set parameter TimeLimit to value 4.8855990695016459e+04
Gurobi Optimizer version 10.0.0 build v10.0.0rc2 (linux64)

CPU model: AMD EPYC 7763 64-Core Processor, instruction set [SSE2|AVX|AVX2]
Thread count: 128 physical cores, 128 logical processors, using up to 4 threads

Optimize a model with 422995 rows, 3734886 columns and 11881406 nonzeros
Model fingerprint: 0x72093e50
Variable types: 3573967 continuous, 160919 integer (160919 binary)
Coefficient statistics:
  Matrix range     [1e+00, 4e+05]
  Objective range  [1e+00, 1e+00]
  Bounds range     [1e+00, 5e+02]
  RHS range        [1e+00, 2e+08]

Loaded MIP start from previous solve with objective 5.64458e+07

Presolve removed 15129 rows and 20000 columns (presolve time = 5s) ...
Presolve removed 16563 rows and 25003 columns (presolve time = 10s) ...
Presolve removed 17682 rows and 26948 columns (presolve time = 15s) ...
Presolve removed 17683 rows and 26948 columns (presolve time = 20s) ...
Presolve removed 17686 rows and 26948 columns (presolve time = 25s) ...
Presolve removed 17686 rows and 26948 columns (presolve time = 30s) ...
Presolve removed 17690 rows and 26948 columns
Presolve time: 32.99s
Presolved: 405305 rows, 3707938 columns, 10750604 nonzeros
Variable types: 3557032 continuous, 150906 integer (150906 binary)
Deterministic concurrent LP optimizer: primal simplex, dual simplex, and barrier
Showing barrier log only...

Root barrier log...

Elapsed ordering time = 5s
Elapsed ordering time = 10s
Elapsed ordering time = 15s
Elapsed ordering time = 20s
Elapsed ordering time = 25s
Elapsed ordering time = 30s
Elapsed ordering time = 35s
Elapsed ordering time = 40s
Elapsed ordering time = 45s
Elapsed ordering time = 50s
Elapsed ordering time = 55s
Elapsed ordering time = 60s
Elapsed ordering time = 65s
Elapsed ordering time = 70s
Elapsed ordering time = 75s
Elapsed ordering time = 80s
Elapsed ordering time = 85s
Elapsed ordering time = 90s
Elapsed ordering time = 95s
Elapsed ordering time = 100s
Elapsed ordering time = 105s
Elapsed ordering time = 110s
Elapsed ordering time = 115s
Elapsed ordering time = 120s
Elapsed ordering time = 125s
Elapsed ordering time = 130s
Elapsed ordering time = 135s
Elapsed ordering time = 140s
Elapsed ordering time = 145s
Elapsed ordering time = 150s
Elapsed ordering time = 155s
Elapsed ordering time = 160s
Elapsed ordering time = 165s
Elapsed ordering time = 170s
Elapsed ordering time = 175s
Elapsed ordering time = 180s
Elapsed ordering time = 185s
Elapsed ordering time = 190s
Elapsed ordering time = 195s
Elapsed ordering time = 200s
Elapsed ordering time = 205s
Elapsed ordering time = 210s
Elapsed ordering time = 215s
Elapsed ordering time = 220s
Elapsed ordering time = 225s
Ordering time: 229.74s

Barrier statistics:
 AA' NZ     : 1.010e+07
 Factor NZ  : 3.426e+08 (roughly 4.0 GB of memory)
 Factor Ops : 1.037e+12 (roughly 17 seconds per iteration)
 Threads    : 2

                  Objective                Residual
Iter       Primal          Dual         Primal    Dual     Compl     Time
   0   1.49883384e+17 -5.52999454e+15  5.26e+10 9.73e+03  2.50e+13   322s
   1   4.80027340e+16 -1.16872574e+15  1.68e+10 6.89e+02  8.27e+12   349s
   2   2.79294089e+15 -2.92345465e+14  9.76e+08 3.35e-09  4.86e+11   378s
   3   3.77365572e+14 -6.62522608e+13  1.32e+08 2.65e-09  6.59e+10   407s
   4   4.01596583e+13 -1.49188075e+13  1.40e+07 2.42e-09  7.08e+09   438s
   5   6.43939509e+12 -5.52452154e+12  2.24e+06 8.29e-09  1.14e+09   469s
   6   6.52094559e+11 -2.89846836e+12  2.26e+05 5.12e-09  1.17e+08   504s
   7   3.34260261e+10 -2.30577381e+12  1.15e+04 3.64e-09  6.31e+06   542s
   8   3.97711561e+09 -1.79863317e+12  1.21e+03 3.26e-09  8.56e+05   577s
   9   1.04620823e+09 -8.62754964e+11  2.31e+02 4.98e-09  2.15e+05   617s
  10   3.35163773e+08 -3.74930397e+11  4.00e+01 8.21e-09  6.78e+04   658s
  11   1.53084545e+08 -8.75383972e+10  2.28e+00 9.31e-09  1.30e+04   702s
  12   1.26890709e+08 -1.77038122e+10  2.38e-01 4.75e-08  2.47e+03   745s
  13   1.14424250e+08 -9.02145167e+09  8.78e-02 3.14e-08  1.24e+03   778s
  14   1.03425530e+08 -1.97174080e+09  2.47e-02 1.13e-07  2.81e+02   818s
  15   8.66298421e+07 -7.64914069e+08  6.77e-03 6.62e-08  1.15e+02   856s
  16   7.78178379e+07 -4.80479211e+08  4.64e-03 4.50e-08  7.53e+01   891s
  17   6.25829514e+07 -2.76071650e+08  1.84e-03 4.60e-08  4.56e+01   926s
  18   5.10851988e+07 -1.24865018e+08  6.20e-04 5.18e-08  2.37e+01   959s
  19   4.43548935e+07 -7.13140009e+07  3.22e-04 4.52e-08  1.56e+01   991s
  20   4.11811908e+07 -3.85108328e+07  2.24e-04 4.94e-08  1.07e+01  1021s
  21   3.68684751e+07 -2.47454021e+07  1.05e-04 5.66e-08  8.30e+00  1049s
  22   3.59155026e+07 -1.26310498e+07  8.61e-05 9.12e-08  6.54e+00  1075s
  23   3.42805443e+07 -4.79858554e+06  5.66e-05 1.30e-07  5.26e+00  1101s
  24   3.24561133e+07  5.00593414e+06  2.95e-05 1.45e-07  3.70e+00  1128s
  25   3.13933063e+07  1.22502448e+07  1.95e-05 1.57e-07  2.58e+00  1156s
  26   2.99321864e+07  1.79712986e+07  8.89e-06 4.87e-08  1.61e+00  1185s
  27   2.91269741e+07  2.26196202e+07  4.51e-06 5.22e-08  8.76e-01  1215s
  28   2.83936327e+07  2.43664908e+07  1.62e-06 5.53e-08  5.42e-01  1247s
  29   2.81044639e+07  2.56960261e+07  8.73e-07 4.77e-08  3.24e-01  1281s
  30   2.78418764e+07  2.69657469e+07  8.18e-07 3.83e-08  1.18e-01  1321s
  31   2.77404347e+07  2.72917856e+07  4.03e-07 4.21e-08  6.04e-02  1354s
  32   2.76451728e+07  2.75370321e+07  5.43e-08 3.77e-08  1.46e-02  1392s
  33   2.76209418e+07  2.76053076e+07  1.12e-08 2.00e-07  2.11e-03  1429s
  34   2.76179370e+07  2.76164134e+07  6.81e-10 5.92e-08  2.05e-04  1464s
  35   2.76175656e+07  2.76173843e+07  1.08e-09 4.68e-07  2.44e-05  1498s
  36   2.76175168e+07  2.76175038e+07  1.10e-08 2.92e-06  1.75e-06  1528s
  37   2.76175142e+07  2.76175128e+07  8.11e-09 1.90e-05  1.90e-07  1557s
  38   2.76175132e+07  2.76175131e+07  7.83e-07 1.16e-04  1.21e-08  1585s
  39   1.49883385e+17 -5.55256773e+16  5.26e+10 1.60e+03  2.50e+14  1636s
  40   3.36600100e+16 -6.40699059e+15  1.18e+10 4.12e+04  3.98e+13  1662s
  41   2.80677576e+15 -1.07959803e+15  9.81e+08 1.81e-08  2.25e+12  1690s
  42   3.11063092e+14 -2.07077268e+14  1.09e+08 2.97e-08  2.18e+11  1718s
  43   3.97024715e+13 -4.01887918e+13  1.38e+07 1.08e-08  2.48e+10  1747s
  44   5.84962127e+12 -1.19377161e+13  2.04e+06 7.36e-09  2.50e+09  1778s
  45   5.78518046e+11 -3.72407424e+12  2.02e+05 4.30e-09  1.19e+08  1810s
  46   7.58982581e+10 -1.11164742e+12  2.68e+04 1.37e-09  6.25e+06  1842s
  47   9.80843572e+09 -1.24579252e+11  3.37e+03 2.91e-10  1.44e+05  1876s
  48   4.62067855e+09 -4.66989742e+10  1.55e+03 2.63e-10  3.59e+04  1903s
  49   1.88385841e+09 -2.25583489e+10  6.02e+02 2.42e-10  1.01e+04  1932s
  50   7.54254703e+08 -1.19010537e+10  2.12e+02 8.91e-10  3.40e+03  1965s
  51   2.24616751e+08 -6.32786277e+09  4.41e+01 1.72e-09  1.19e+03  1999s
  52   1.25813411e+08 -2.99058470e+09  1.53e+01 2.82e-09  5.20e+02  2029s
  53   8.42957198e+07 -1.34974845e+09  4.80e+00 3.81e-09  2.21e+02  2061s
  54   7.06413051e+07 -6.70293100e+08  2.55e+00 6.12e-09  1.12e+02  2090s
  55   5.51177920e+07 -3.62316454e+08  9.41e-01 1.22e-08  5.97e+01  2119s
  56   4.50403873e+07 -1.80632266e+08  3.27e-01 4.10e-08  3.12e+01  2147s
  57   3.87886642e+07 -8.42105781e+07  1.34e-01 4.97e-08  1.68e+01  2176s
  58   3.41993620e+07 -3.35597703e+07  3.87e-02 3.42e-08  9.17e+00  2204s
  59   3.21321670e+07 -1.32497370e+07  1.71e-02 5.89e-08  6.13e+00  2231s
  60   3.10013860e+07  9.19949957e+05  9.70e-03 8.48e-08  4.06e+00  2256s
  61   3.01990426e+07  6.55690836e+06  6.06e-03 6.79e-08  3.19e+00  2281s
  62   2.97842115e+07  1.20787148e+07  4.53e-03 1.02e-07  2.39e+00  2306s
  63   2.92040181e+07  1.75468753e+07  2.75e-03 1.24e-07  1.57e+00  2332s
  64   2.86524912e+07  2.11951668e+07  1.44e-03 1.19e-07  1.00e+00  2358s
  65   2.82429131e+07  2.32811299e+07  6.92e-04 1.42e-07  6.68e-01  2386s
  66   2.79478939e+07  2.50022404e+07  2.92e-04 2.01e-07  3.97e-01  2415s
  67   2.77494822e+07  2.60265383e+07  8.98e-05 6.19e-07  2.32e-01  2445s
  68   2.76999243e+07  2.67969230e+07  4.72e-05 1.57e-06  1.22e-01  2475s
  69   2.76436064e+07  2.73939927e+07  1.27e-05 5.10e-06  3.36e-02  2514s
  70   2.76215917e+07  2.75803293e+07  1.87e-06 6.57e-05  5.56e-03  2568s
  71   2.76181912e+07  2.76158952e+07  1.56e-07 2.70e-04  3.09e-04  2605s
  72   2.76175660e+07  2.76173996e+07  1.18e-08 6.31e-04  2.24e-05  2637s
  73   2.76175571e+07  2.76173997e+07  9.82e-09 6.27e-04  2.12e-05  2665s
  74   2.76175563e+07  2.76173997e+07  9.63e-09 6.29e-04  2.11e-05  2692s
  75   2.76175549e+07  2.76173997e+07  9.29e-09 6.30e-04  2.09e-05  2721s
  76   2.76175530e+07  2.76173994e+07  8.86e-09 4.71e-04  2.07e-05  2750s
  77   2.76175460e+07  2.76173994e+07  7.23e-09 4.71e-04  1.97e-05  2779s
  78   2.76175427e+07  2.76173994e+07  7.39e-09 4.71e-04  1.93e-05  2808s
  79   2.76175422e+07  2.76173994e+07  8.33e-09 4.71e-04  1.92e-05  2837s
  80   2.76175393e+07  2.76173994e+07  1.05e-08 4.72e-04  1.88e-05  2867s
  81   2.76175370e+07  2.76173994e+07  6.49e-09 4.72e-04  1.85e-05  2896s
  82   2.76175370e+07  2.76173994e+07  1.10e-08 4.72e-04  1.85e-05  2927s

Barrier performed 82 iterations in 2926.99 seconds (2303.51 work units)
Sub-optimal termination - objective 2.76175168e+07


Root crossover log...

  386405 DPushes remaining with DInf 9.0704628e-04              2928s
   87388 DPushes remaining with DInf 3.1706357e-04              2934s
   27161 DPushes remaining with DInf 6.2239790e-05              2938s
    5421 DPushes remaining with DInf 0.0000000e+00              2940s
    4236 DPushes remaining with DInf 3.6409586e-05              2950s
    4221 DPushes remaining with DInf 0.0000000e+00              2950s

   18312 PPushes remaining with PInf 1.0178252e-02              2950s
    7017 PPushes remaining with PInf 1.0730213e-06              2955s
       0 PPushes remaining with PInf 0.0000000e+00              2960s

  Push phase complete: Pinf 0.0000000e+00, Dinf 1.5981265e+03   2960s


Root simplex log...

Iteration    Objective       Primal Inf.    Dual Inf.      Time
  400036    2.7617513e+07   0.000000e+00   1.598126e+03   2961s
  400177    2.7617513e+07   0.000000e+00   0.000000e+00   2966s
Waiting for other threads to finish...        3029s
Waiting for other threads to finish...        3093s
Waiting for other threads to finish...        3157s
Waiting for other threads to finish...        3220s
Waiting for other threads to finish...        3284s
Waiting for other threads to finish...        3347s
Waiting for other threads to finish...        3411s
Waiting for other threads to finish...        3474s
Waiting for other threads to finish...        3538s
Waiting for other threads to finish...        3601s
Waiting for other threads to finish...        3701s
Waiting for other threads to finish...        3764s
Waiting for other threads to finish...        3828s
Waiting for other threads to finish...        3891s
Waiting for other threads to finish...        3955s
Waiting for other threads to finish...        4019s
Concurrent spin time: 1088.13s (can be avoided by choosing Method=3)

Solved with barrier
  400177    2.7617513e+07   0.000000e+00   0.000000e+00   4055s

Root relaxation: objective 2.761751e+07, 400177 iterations, 4020.23 seconds (2330.54 work units)
Total elapsed time = 4075.10s
Total elapsed time = 4094.16s

    Nodes    |    Current Node    |     Objective Bounds      |     Work
 Expl Unexpl |  Obj  Depth IntInf | Incumbent    BestBd   Gap | It/Node Time

     0     0 2.7618e+07    0 9064 5.6446e+07 2.7618e+07  51.1%     - 4122s
     0     0          -    0      5.6446e+07 2.7618e+07  51.1%     - 48856s

Cutting planes:
  Gomory: 11
  Cover: 4
  Implied bound: 1761
  MIR: 139
  StrongCG: 1
  Flow cover: 2952
  GUB cover: 1
  RLT: 9
  Relax-and-lift: 87

Explored 1 nodes (908846 simplex iterations) in 48856.15 seconds (38169.38 work units)
Thread count was 4 (of 128 available processors)

Solution count 1: 5.64458e+07 

Time limit reached
Best objective 5.644580800000e+07, best bound 2.761751318203e+07, gap 51.0725%

Solving took 	13:34:16.227
####################################################################################################
####################################################################################################
####################################################################################################
Reached timelimit, but could find a feasible solution
####################################################################################################
Description                          Value
----------------------------  ------------
Objective (min)               56,445,808.0
Cost sailing                  25,535,648.0
Cost port visits              14,771,876.0
Cost transshipment (demands)   3,484,326.0
Cost transshipment (empties)     656,712.0
Penalty delayed demands        5,488,626.0
Revenue Empties                3,409,930.0
Penalty rejected demands       9,918,550.0
Rejected demands (%)                   5.2
Omitted ports (%)                    34.94
Gap (%)                              51.07
####################################################################################################
Export solution
####################################################################################################
Overall time 	13:35:46.626

real	815m48.817s
user	965m7.913s
sys	0m54.271s
finished at Sat Mar 18 01:54:39 CET 2023
